7
2147483647 9 19 49 68 5 88 
9 2147483647 50 64 14 54 10 
19 50 2147483647 32 55 35 77 
49 64 32 2147483647 10 12 87 
68 14 55 10 2147483647 50 65 
5 54 35 12 50 2147483647 5 
88 10 77 87 65 5 2147483647 
